unsat
(define-fun SC ((s (_ BitVec 4)) (t (_ BitVec 4))) Bool (bvult #b0000 (bvor s t)))
0.07user 0.02system 0:00.09elapsed 100%CPU (0avgtext+0avgdata 29672maxresident)k
0inputs+8outputs (0major+2047minor)pagefaults 0swaps
